Instance name:    bar-n100-3
Authors:          PDPTW Solver
Date:             2025-11-20
Reference:        LNS with SA/RTR
Solution
Route 1 : 20 4 38 88 3 53 14 21 54 70 71 7 27 77 57 64
Route 2 : 36 47 97 44 86 94 24 74 46 9 59 96 35 41 2 52 91 85
Route 3 : 33 1 51 5 55 45 83 43 42 92 18 68 93 95
Route 4 : 39 89 8 11 61 32 82 48 49 99 98 58 28 15 65 78
Route 5 : 23 73 13 19 63 50 69 16 66 6 56 22 100 12 62 72 17 67
Route 6 : 26 31 81 76 40 30 80 37 25 75 10 90 34 60 87 29 79 84
